20
1 0 5
2 0 11
2 1 17
3 0 10
3 1 19
3 2 1
4 0 9
4 1 3
4 2 3
4 3 6
5 0 14
5 1 7
5 2 4
5 3 6
5 4 8
6 0 14
6 1 15
6 2 13
6 3 14
6 4 12
6 5 8
7 0 11
7 1 2
7 2 17
7 3 18
7 4 5
7 5 19
7 6 14
8 0 8
8 1 16
8 2 17
8 3 12
8 4 8
8 5 12
8 6 19
8 7 10
9 0 19
9 1 8
9 2 4
9 3 11
9 4 19
9 5 1
9 6 6
9 7 9
9 8 12
10 0 1
10 1 9
10 2 20
10 3 2
10 4 15
10 5 1
10 6 17
10 7 7
10 8 16
10 9 17
11 0 4
11 1 19
11 2 1
11 3 18
11 4 19
11 5 8
11 6 7
11 7 5
11 8 2
11 9 7
11 10 6
12 0 3
12 1 5
12 2 2
12 3 4
12 4 15
12 5 13
12 6 13
12 7 17
12 8 17
12 9 12
12 10 4
12 11 16
13 0 6
13 1 20
13 2 17
13 3 10
13 4 19
13 5 5
13 6 11
13 7 3
13 8 1
13 9 10
13 10 7
13 11 7
13 12 3
14 0 14
14 1 14
14 2 4
14 3 16
14 4 18
14 5 8
14 6 12
14 7 20
14 8 19
14 9 4
14 10 8
14 11 5
14 12 3
14 13 12
15 0 5
15 1 4
15 2 5
15 3 17
15 4 4
15 5 17
15 6 19
15 7 8
15 8 12
15 9 17
15 10 5
15 11 7
15 12 20
15 13 7
15 14 13
16 0 18
16 1 10
16 2 3
16 3 7
16 4 3
16 5 15
16 6 2
16 7 8
16 8 3
16 9 11
16 10 1
16 11 3
16 12 15
16 13 19
16 14 9
16 15 15
17 0 1
17 1 2
17 2 17
17 3 13
17 4 19
17 5 10
17 6 20
17 7 16
17 8 14
17 9 20
17 10 12
17 11 7
17 12 16
17 13 18
17 14 9
17 15 7
17 16 8
18 0 7
18 1 14
18 2 17
18 3 5
18 4 4
18 5 20
18 6 11
18 7 17
18 8 14
18 9 13
18 10 5
18 11 16
18 12 4
18 13 17
18 14 7
18 15 8
18 16 17
18 17 20
19 0 2
19 1 11
19 2 1
19 3 7
19 4 14
19 5 5
19 6 10
19 7 7
19 8 15
19 9 10
19 10 3
19 11 4
19 12 6
19 13 12
19 14 9
19 15 11
19 16 17
19 17 1
19 18 20
